\ This file has been generated by DOcplex
\ ENCODING=ISO-8859-1
\Problem name: random_problem.lp

Minimize
 obj: 5 x0 + 2 x1 + 5 x2 + 2 x3 + 9 x4 - 7 x5 + 5 x6 + x7 + 10 x8 + 8 x9 - 2 x10
      + 2 x11 - 8 x12 - 7 x13 + 3 x14 + 10 x15 + 2 x16 + 8 x17 + [ - 20 x0*x1
      - 8 x0*x4 - 14 x0*x11 - 12 x0*x12 + 2 x0*x14 - 6 x1*x5 + 16 x1*x9
      - 8 x1*x17 + 16 x1*x18 + 18 x2*x4 + 18 x2*x11 + 12 x2*x12 - 2 x2*x13
      - 18 x2*x17 - 4 x3*x6 - 4 x3*x7 + 6 x3*x9 - 12 x3*x10 + 6 x3*x16
      + 10 x4*x7 + 16 x4*x9 - 12 x4*x15 + 16 x5*x10 + 16 x5*x11 + 16 x5*x15
      + 12 x5*x18 - 12 x6*x7 + 20 x6*x10 + 14 x6*x12 - 14 x6*x13 - 18 x7*x12
      - 10 x7*x14 - 6 x8*x9 + 16 x8*x12 - 6 x8*x13 + 10 x8*x14 + 10 x8*x16
      + 8 x9*x11 - 10 x10*x11 - 18 x10*x14 - 6 x13*x16 + 14 x13*x17 + 6 x14*x17
      + 8 x15*x16 - 8 x15*x17 + 14 x15*x18 - 8 x16*x18 ]/2
Subject To
 c0: - x0 + x3 - 2 x6 - 2 x7 - x12 = -2
 c1: 2 x0 + 2 x2 + x11 - 2 x12 - 2 x17 = -1
 c2: - 2 x3 + 2 x5 - x8 + 2 x12 - x18 = 0

Bounds
 0 <= x0 <= 1
 0 <= x1 <= 1
 0 <= x2 <= 1
 0 <= x3 <= 1
 0 <= x4 <= 1
 0 <= x5 <= 1
 0 <= x6 <= 1
 0 <= x7 <= 1
 0 <= x8 <= 1
 0 <= x9 <= 1
 0 <= x10 <= 1
 0 <= x11 <= 1
 0 <= x12 <= 1
 0 <= x13 <= 1
 0 <= x14 <= 1
 0 <= x15 <= 1
 0 <= x16 <= 1
 0 <= x17 <= 1
 0 <= x18 <= 1

Binaries
 x0 x1 x2 x3 x4 x5 x6 x7 x8 x9 x10 x11 x12 x13 x14 x15 x16 x17 x18
End
